c File: flat100_3_0.col
c
c SOURCE: Joseph Culberson (joe@cs.ualberta.ca)
c DESCRIPTION: Quasi-random coloring problem
c              generated with flatness = 0
c                             probability = 0.072
c                             known coloring = 3
c                             random seed = 1053
c              Creation Date:  Thu Jun  4 18:55:58 1998
c Maximum degree = 8 Minimum degree = 1
c p edge 100 239
c cnf created by edge2cnf
p cnf 300 1117
-1 -2 0
-1 -3 0
-2 -3 0
1 2 3 0
-4 -5 0
-4 -6 0
-5 -6 0
4 5 6 0
-7 -8 0
-7 -9 0
-8 -9 0
7 8 9 0
-10 -11 0
-10 -12 0
-11 -12 0
10 11 12 0
-13 -14 0
-13 -15 0
-14 -15 0
13 14 15 0
-16 -17 0
-16 -18 0
-17 -18 0
16 17 18 0
-19 -20 0
-19 -21 0
-20 -21 0
19 20 21 0
-22 -23 0
-22 -24 0
-23 -24 0
22 23 24 0
-25 -26 0
-25 -27 0
-26 -27 0
25 26 27 0
-28 -29 0
-28 -30 0
-29 -30 0
28 29 30 0
-31 -32 0
-31 -33 0
-32 -33 0
31 32 33 0
-34 -35 0
-34 -36 0
-35 -36 0
34 35 36 0
-37 -38 0
-37 -39 0
-38 -39 0
37 38 39 0
-40 -41 0
-40 -42 0
-41 -42 0
40 41 42 0
-43 -44 0
-43 -45 0
-44 -45 0
43 44 45 0
-46 -47 0
-46 -48 0
-47 -48 0
46 47 48 0
-49 -50 0
-49 -51 0
-50 -51 0
49 50 51 0
-52 -53 0
-52 -54 0
-53 -54 0
52 53 54 0
-55 -56 0
-55 -57 0
-56 -57 0
55 56 57 0
-58 -59 0
-58 -60 0
-59 -60 0
58 59 60 0
-61 -62 0
-61 -63 0
-62 -63 0
61 62 63 0
-64 -65 0
-64 -66 0
-65 -66 0
64 65 66 0
-67 -68 0
-67 -69 0
-68 -69 0
67 68 69 0
-70 -71 0
-70 -72 0
-71 -72 0
70 71 72 0
-73 -74 0
-73 -75 0
-74 -75 0
73 74 75 0
-76 -77 0
-76 -78 0
-77 -78 0
76 77 78 0
-79 -80 0
-79 -81 0
-80 -81 0
79 80 81 0
-82 -83 0
-82 -84 0
-83 -84 0
82 83 84 0
-85 -86 0
-85 -87 0
-86 -87 0
85 86 87 0
-88 -89 0
-88 -90 0
-89 -90 0
88 89 90 0
-91 -92 0
-91 -93 0
-92 -93 0
91 92 93 0
-94 -95 0
-94 -96 0
-95 -96 0
94 95 96 0
-97 -98 0
-97 -99 0
-98 -99 0
97 98 99 0
-100 -101 0
-100 -102 0
-101 -102 0
100 101 102 0
-103 -104 0
-103 -105 0
-104 -105 0
103 104 105 0
-106 -107 0
-106 -108 0
-107 -108 0
106 107 108 0
-109 -110 0
-109 -111 0
-110 -111 0
109 110 111 0
-112 -113 0
-112 -114 0
-113 -114 0
112 113 114 0
-115 -116 0
-115 -117 0
-116 -117 0
115 116 117 0
-118 -119 0
-118 -120 0
-119 -120 0
118 119 120 0
-121 -122 0
-121 -123 0
-122 -123 0
121 122 123 0
-124 -125 0
-124 -126 0
-125 -126 0
124 125 126 0
-127 -128 0
-127 -129 0
-128 -129 0
127 128 129 0
-130 -131 0
-130 -132 0
-131 -132 0
130 131 132 0
-133 -134 0
-133 -135 0
-134 -135 0
133 134 135 0
-136 -137 0
-136 -138 0
-137 -138 0
136 137 138 0
-139 -140 0
-139 -141 0
-140 -141 0
139 140 141 0
-142 -143 0
-142 -144 0
-143 -144 0
142 143 144 0
-145 -146 0
-145 -147 0
-146 -147 0
145 146 147 0
-148 -149 0
-148 -150 0
-149 -150 0
148 149 150 0
-151 -152 0
-151 -153 0
-152 -153 0
151 152 153 0
-154 -155 0
-154 -156 0
-155 -156 0
154 155 156 0
-157 -158 0
-157 -159 0
-158 -159 0
157 158 159 0
-160 -161 0
-160 -162 0
-161 -162 0
160 161 162 0
-163 -164 0
-163 -165 0
-164 -165 0
163 164 165 0
-166 -167 0
-166 -168 0
-167 -168 0
166 167 168 0
-169 -170 0
-169 -171 0
-170 -171 0
169 170 171 0
-172 -173 0
-172 -174 0
-173 -174 0
172 173 174 0
-175 -176 0
-175 -177 0
-176 -177 0
175 176 177 0
-178 -179 0
-178 -180 0
-179 -180 0
178 179 180 0
-181 -182 0
-181 -183 0
-182 -183 0
181 182 183 0
-184 -185 0
-184 -186 0
-185 -186 0
184 185 186 0
-187 -188 0
-187 -189 0
-188 -189 0
187 188 189 0
-190 -191 0
-190 -192 0
-191 -192 0
190 191 192 0
-193 -194 0
-193 -195 0
-194 -195 0
193 194 195 0
-196 -197 0
-196 -198 0
-197 -198 0
196 197 198 0
-199 -200 0
-199 -201 0
-200 -201 0
199 200 201 0
-202 -203 0
-202 -204 0
-203 -204 0
202 203 204 0
-205 -206 0
-205 -207 0
-206 -207 0
205 206 207 0
-208 -209 0
-208 -210 0
-209 -210 0
208 209 210 0
-211 -212 0
-211 -213 0
-212 -213 0
211 212 213 0
-214 -215 0
-214 -216 0
-215 -216 0
214 215 216 0
-217 -218 0
-217 -219 0
-218 -219 0
217 218 219 0
-220 -221 0
-220 -222 0
-221 -222 0
220 221 222 0
-223 -224 0
-223 -225 0
-224 -225 0
223 224 225 0
-226 -227 0
-226 -228 0
-227 -228 0
226 227 228 0
-229 -230 0
-229 -231 0
-230 -231 0
229 230 231 0
-232 -233 0
-232 -234 0
-233 -234 0
232 233 234 0
-235 -236 0
-235 -237 0
-236 -237 0
235 236 237 0
-238 -239 0
-238 -240 0
-239 -240 0
238 239 240 0
-241 -242 0
-241 -243 0
-242 -243 0
241 242 243 0
-244 -245 0
-244 -246 0
-245 -246 0
244 245 246 0
-247 -248 0
-247 -249 0
-248 -249 0
247 248 249 0
-250 -251 0
-250 -252 0
-251 -252 0
250 251 252 0
-253 -254 0
-253 -255 0
-254 -255 0
253 254 255 0
-256 -257 0
-256 -258 0
-257 -258 0
256 257 258 0
-259 -260 0
-259 -261 0
-260 -261 0
259 260 261 0
-262 -263 0
-262 -264 0
-263 -264 0
262 263 264 0
-265 -266 0
-265 -267 0
-266 -267 0
265 266 267 0
-268 -269 0
-268 -270 0
-269 -270 0
268 269 270 0
-271 -272 0
-271 -273 0
-272 -273 0
271 272 273 0
-274 -275 0
-274 -276 0
-275 -276 0
274 275 276 0
-277 -278 0
-277 -279 0
-278 -279 0
277 278 279 0
-280 -281 0
-280 -282 0
-281 -282 0
280 281 282 0
-283 -284 0
-283 -285 0
-284 -285 0
283 284 285 0
-286 -287 0
-286 -288 0
-287 -288 0
286 287 288 0
-289 -290 0
-289 -291 0
-290 -291 0
289 290 291 0
-292 -293 0
-292 -294 0
-293 -294 0
292 293 294 0
-295 -296 0
-295 -297 0
-296 -297 0
295 296 297 0
-298 -299 0
-298 -300 0
-299 -300 0
298 299 300 0
-169 -1 0
-170 -2 0
-171 -3 0
-220 -1 0
-221 -2 0
-222 -3 0
-244 -1 0
-245 -2 0
-246 -3 0
-136 -4 0
-137 -5 0
-138 -6 0
-187 -4 0
-188 -5 0
-189 -6 0
-196 -4 0
-197 -5 0
-198 -6 0
-202 -4 0
-203 -5 0
-204 -6 0
-211 -4 0
-212 -5 0
-213 -6 0
-157 -7 0
-158 -8 0
-159 -9 0
-184 -7 0
-185 -8 0
-186 -9 0
-193 -7 0
-194 -8 0
-195 -9 0
-214 -7 0
-215 -8 0
-216 -9 0
-226 -7 0
-227 -8 0
-228 -9 0
-256 -7 0
-257 -8 0
-258 -9 0
-127 -10 0
-128 -11 0
-129 -12 0
-160 -10 0
-161 -11 0
-162 -12 0
-187 -10 0
-188 -11 0
-189 -12 0
-256 -10 0
-257 -11 0
-258 -12 0
-163 -13 0
-164 -14 0
-165 -15 0
-190 -13 0
-191 -14 0
-192 -15 0
-262 -13 0
-263 -14 0
-264 -15 0
-292 -13 0
-293 -14 0
-294 -15 0
-103 -16 0
-104 -17 0
-105 -18 0
-166 -16 0
-167 -17 0
-168 -18 0
-187 -16 0
-188 -17 0
-189 -18 0
-112 -19 0
-113 -20 0
-114 -21 0
-178 -19 0
-179 -20 0
-180 -21 0
-205 -19 0
-206 -20 0
-207 -21 0
-220 -19 0
-221 -20 0
-222 -21 0
-247 -19 0
-248 -20 0
-249 -21 0
-289 -19 0
-290 -20 0
-291 -21 0
-112 -22 0
-113 -23 0
-114 -24 0
-145 -22 0
-146 -23 0
-147 -24 0
-211 -22 0
-212 -23 0
-213 -24 0
-298 -22 0
-299 -23 0
-300 -24 0
-103 -25 0
-104 -26 0
-105 -27 0
-187 -25 0
-188 -26 0
-189 -27 0
-226 -25 0
-227 -26 0
-228 -27 0
-259 -25 0
-260 -26 0
-261 -27 0
-268 -25 0
-269 -26 0
-270 -27 0
-109 -28 0
-110 -29 0
-111 -30 0
-148 -28 0
-149 -29 0
-150 -30 0
-229 -28 0
-230 -29 0
-231 -30 0
-235 -28 0
-236 -29 0
-237 -30 0
-253 -28 0
-254 -29 0
-255 -30 0
-274 -28 0
-275 -29 0
-276 -30 0
-118 -31 0
-119 -32 0
-120 -33 0
-142 -31 0
-143 -32 0
-144 -33 0
-154 -31 0
-155 -32 0
-156 -33 0
-193 -31 0
-194 -32 0
-195 -33 0
-208 -31 0
-209 -32 0
-210 -33 0
-217 -31 0
-218 -32 0
-219 -33 0
-298 -31 0
-299 -32 0
-300 -33 0
-112 -34 0
-113 -35 0
-114 -36 0
-136 -34 0
-137 -35 0
-138 -36 0
-163 -34 0
-164 -35 0
-165 -36 0
-172 -34 0
-173 -35 0
-174 -36 0
-205 -34 0
-206 -35 0
-207 -36 0
-268 -34 0
-269 -35 0
-270 -36 0
-103 -37 0
-104 -38 0
-105 -39 0
-112 -37 0
-113 -38 0
-114 -39 0
-145 -37 0
-146 -38 0
-147 -39 0
-169 -37 0
-170 -38 0
-171 -39 0
-247 -37 0
-248 -38 0
-249 -39 0
-271 -37 0
-272 -38 0
-273 -39 0
-277 -37 0
-278 -38 0
-279 -39 0
-280 -37 0
-281 -38 0
-282 -39 0
-166 -40 0
-167 -41 0
-168 -42 0
-247 -40 0
-248 -41 0
-249 -42 0
-109 -43 0
-110 -44 0
-111 -45 0
-124 -43 0
-125 -44 0
-126 -45 0
-136 -43 0
-137 -44 0
-138 -45 0
-223 -43 0
-224 -44 0
-225 -45 0
-175 -46 0
-176 -47 0
-177 -48 0
-250 -46 0
-251 -47 0
-252 -48 0
-136 -49 0
-137 -50 0
-138 -51 0
-151 -49 0
-152 -50 0
-153 -51 0
-214 -49 0
-215 -50 0
-216 -51 0
-229 -49 0
-230 -50 0
-231 -51 0
-247 -49 0
-248 -50 0
-249 -51 0
-259 -49 0
-260 -50 0
-261 -51 0
-109 -52 0
-110 -53 0
-111 -54 0
-133 -52 0
-134 -53 0
-135 -54 0
-178 -52 0
-179 -53 0
-180 -54 0
-229 -52 0
-230 -53 0
-231 -54 0
-238 -52 0
-239 -53 0
-240 -54 0
-121 -55 0
-122 -56 0
-123 -57 0
-223 -55 0
-224 -56 0
-225 -57 0
-223 -58 0
-224 -59 0
-225 -60 0
-226 -58 0
-227 -59 0
-228 -60 0
-289 -58 0
-290 -59 0
-291 -60 0
-148 -61 0
-149 -62 0
-150 -63 0
-157 -61 0
-158 -62 0
-159 -63 0
-253 -61 0
-254 -62 0
-255 -63 0
-121 -64 0
-122 -65 0
-123 -66 0
-124 -64 0
-125 -65 0
-126 -66 0
-157 -64 0
-158 -65 0
-159 -66 0
-175 -64 0
-176 -65 0
-177 -66 0
-205 -64 0
-206 -65 0
-207 -66 0
-271 -64 0
-272 -65 0
-273 -66 0
-289 -64 0
-290 -65 0
-291 -66 0
-139 -67 0
-140 -68 0
-141 -69 0
-181 -67 0
-182 -68 0
-183 -69 0
-196 -67 0
-197 -68 0
-198 -69 0
-205 -67 0
-206 -68 0
-207 -69 0
-265 -67 0
-266 -68 0
-267 -69 0
-274 -67 0
-275 -68 0
-276 -69 0
-289 -67 0
-290 -68 0
-291 -69 0
-130 -70 0
-131 -71 0
-132 -72 0
-133 -70 0
-134 -71 0
-135 -72 0
-142 -70 0
-143 -71 0
-144 -72 0
-283 -70 0
-284 -71 0
-285 -72 0
-118 -73 0
-119 -74 0
-120 -75 0
-124 -73 0
-125 -74 0
-126 -75 0
-133 -73 0
-134 -74 0
-135 -75 0
-151 -73 0
-152 -74 0
-153 -75 0
-280 -73 0
-281 -74 0
-282 -75 0
-298 -73 0
-299 -74 0
-300 -75 0
-109 -76 0
-110 -77 0
-111 -78 0
-118 -76 0
-119 -77 0
-120 -78 0
-163 -76 0
-164 -77 0
-165 -78 0
-199 -76 0
-200 -77 0
-201 -78 0
-256 -76 0
-257 -77 0
-258 -78 0
-265 -76 0
-266 -77 0
-267 -78 0
-268 -76 0
-269 -77 0
-270 -78 0
-121 -79 0
-122 -80 0
-123 -81 0
-154 -79 0
-155 -80 0
-156 -81 0
-181 -79 0
-182 -80 0
-183 -81 0
-250 -79 0
-251 -80 0
-252 -81 0
-280 -79 0
-281 -80 0
-282 -81 0
-121 -82 0
-122 -83 0
-123 -84 0
-139 -82 0
-140 -83 0
-141 -84 0
-148 -82 0
-149 -83 0
-150 -84 0
-157 -82 0
-158 -83 0
-159 -84 0
-202 -82 0
-203 -83 0
-204 -84 0
-214 -82 0
-215 -83 0
-216 -84 0
-277 -82 0
-278 -83 0
-279 -84 0
-256 -85 0
-257 -86 0
-258 -87 0
-259 -85 0
-260 -86 0
-261 -87 0
-286 -85 0
-287 -86 0
-288 -87 0
-292 -85 0
-293 -86 0
-294 -87 0
-124 -88 0
-125 -89 0
-126 -90 0
-130 -88 0
-131 -89 0
-132 -90 0
-226 -88 0
-227 -89 0
-228 -90 0
-103 -91 0
-104 -92 0
-105 -93 0
-214 -91 0
-215 -92 0
-216 -93 0
-250 -91 0
-251 -92 0
-252 -93 0
-271 -91 0
-272 -92 0
-273 -93 0
-280 -91 0
-281 -92 0
-282 -93 0
-127 -94 0
-128 -95 0
-129 -96 0
-211 -94 0
-212 -95 0
-213 -96 0
-229 -94 0
-230 -95 0
-231 -96 0
-262 -94 0
-263 -95 0
-264 -96 0
-277 -94 0
-278 -95 0
-279 -96 0
-175 -97 0
-176 -98 0
-177 -99 0
-199 -97 0
-200 -98 0
-201 -99 0
-259 -97 0
-260 -98 0
-261 -99 0
-265 -97 0
-266 -98 0
-267 -99 0
-139 -100 0
-140 -101 0
-141 -102 0
-175 -100 0
-176 -101 0
-177 -102 0
-265 -100 0
-266 -101 0
-267 -102 0
-205 -103 0
-206 -104 0
-207 -105 0
-235 -103 0
-236 -104 0
-237 -105 0
-247 -103 0
-248 -104 0
-249 -105 0
-256 -106 0
-257 -107 0
-258 -108 0
-259 -109 0
-260 -110 0
-261 -111 0
-274 -109 0
-275 -110 0
-276 -111 0
-289 -109 0
-290 -110 0
-291 -111 0
-295 -109 0
-296 -110 0
-297 -111 0
-202 -112 0
-203 -113 0
-204 -114 0
-220 -112 0
-221 -113 0
-222 -114 0
-286 -112 0
-287 -113 0
-288 -114 0
-298 -112 0
-299 -113 0
-300 -114 0
-259 -115 0
-260 -116 0
-261 -117 0
-289 -115 0
-290 -116 0
-291 -117 0
-253 -118 0
-254 -119 0
-255 -120 0
-271 -118 0
-272 -119 0
-273 -120 0
-220 -121 0
-221 -122 0
-222 -123 0
-232 -124 0
-233 -125 0
-234 -126 0
-241 -124 0
-242 -125 0
-243 -126 0
-274 -124 0
-275 -125 0
-276 -126 0
-220 -127 0
-221 -128 0
-222 -129 0
-223 -127 0
-224 -128 0
-225 -129 0
-250 -127 0
-251 -128 0
-252 -129 0
-205 -130 0
-206 -131 0
-207 -132 0
-229 -130 0
-230 -131 0
-231 -132 0
-238 -130 0
-239 -131 0
-240 -132 0
-205 -133 0
-206 -134 0
-207 -135 0
-223 -133 0
-224 -134 0
-225 -135 0
-241 -133 0
-242 -134 0
-243 -135 0
-256 -136 0
-257 -137 0
-258 -138 0
-247 -139 0
-248 -140 0
-249 -141 0
-256 -139 0
-257 -140 0
-258 -141 0
-283 -139 0
-284 -140 0
-285 -141 0
-292 -139 0
-293 -140 0
-294 -141 0
-238 -142 0
-239 -143 0
-240 -144 0
-292 -142 0
-293 -143 0
-294 -144 0
-277 -145 0
-278 -146 0
-279 -147 0
-289 -145 0
-290 -146 0
-291 -147 0
-223 -148 0
-224 -149 0
-225 -150 0
-286 -148 0
-287 -149 0
-288 -150 0
-265 -151 0
-266 -152 0
-267 -153 0
-277 -151 0
-278 -152 0
-279 -153 0
-283 -157 0
-284 -158 0
-285 -159 0
-217 -160 0
-218 -161 0
-219 -162 0
-241 -160 0
-242 -161 0
-243 -162 0
-298 -160 0
-299 -161 0
-300 -162 0
-241 -163 0
-242 -164 0
-243 -165 0
-253 -163 0
-254 -164 0
-255 -165 0
-211 -166 0
-212 -167 0
-213 -168 0
-223 -166 0
-224 -167 0
-225 -168 0
-226 -166 0
-227 -167 0
-228 -168 0
-280 -166 0
-281 -167 0
-282 -168 0
-202 -169 0
-203 -170 0
-204 -171 0
-229 -169 0
-230 -170 0
-231 -171 0
-262 -169 0
-263 -170 0
-264 -171 0
-283 -169 0
-284 -170 0
-285 -171 0
-217 -172 0
-218 -173 0
-219 -174 0
-271 -172 0
-272 -173 0
-273 -174 0
-211 -175 0
-212 -176 0
-213 -177 0
-250 -175 0
-251 -176 0
-252 -177 0
-280 -175 0
-281 -176 0
-282 -177 0
-298 -175 0
-299 -176 0
-300 -177 0
-253 -178 0
-254 -179 0
-255 -180 0
-247 -181 0
-248 -182 0
-249 -183 0
-253 -181 0
-254 -182 0
-255 -183 0
-283 -181 0
-284 -182 0
-285 -183 0
-298 -181 0
-299 -182 0
-300 -183 0
-226 -184 0
-227 -185 0
-228 -186 0
-235 -184 0
-236 -185 0
-237 -186 0
-289 -184 0
-290 -185 0
-291 -186 0
-202 -187 0
-203 -188 0
-204 -189 0
-247 -190 0
-248 -191 0
-249 -192 0
-211 -193 0
-212 -194 0
-213 -195 0
-235 -193 0
-236 -194 0
-237 -195 0
-286 -193 0
-287 -194 0
-288 -195 0
-259 -196 0
-260 -197 0
-261 -198 0
-286 -196 0
-287 -197 0
-288 -198 0
-235 -199 0
-236 -200 0
-237 -201 0
